# MD Simulation with LAMMPS Package  — sucrose box (bio-ready NVT/NPT)
# ---------- Initialization ----------
dimension        3
boundary         p p p
units            real
atom_style       full

# ---------- System ----------
read_data        data.data

# ---------- Force field (BIO-ready) ----------
# Nonbonded: LJ + long-range Coulomb; AMBER/GLYCAM-style 1–4 scaling
pair_style       lj/cut/coul/long 10.0
kspace_style     pppm 1.0e-4
special_bonds    amber
neighbor         2.0 bin
neigh_modify     every 1 delay 0 check yes

# If you keep bonded terms in the input, leave these; otherwise remove if defined in data.data
bond_style       harmonic
# bond_coeff     1 350 1.530   # CC
# bond_coeff     2 350 1.090   # CH
# bond_coeff     3 350 1.420   # CO
# bond_coeff     4 350 0.980   # HO
# angle_style    harmonic
# angle_coeff    ...
# dihedral_style harmonic
# dihedral_coeff ...

# Pair coefficients:
# Recommended: keep per-type eps/sigma in your data file.
# If you must set here, specify for your type IDs (example types 1:C, 2:H, 3:O):
# pair_coeff     1 1  epsC  sigmaC
# pair_coeff     2 2  epsH  sigmaH
# pair_coeff     3 3  epsO  sigmaO
# (Use parameters consistent with your chosen FF; do NOT mix AMBER/OPLS units/definitions.)

# ---------- MD controls ----------
reset_timestep   0
timestep         2.0                 # 2 fs with X–H constraints recommended
# Constrain bonds to H if your FF allows (speeds up & stabilizes):
# fix            shake all shake 1.0e-6 200 0 b 1 a 1    # adjust groups/type-IDs to match your data

# ---------- Equilibration plan ----------
# (1) Short NVT to settle temperature
velocity         all create 300.0 6612656 mom yes rot yes dist gaussian
fix              nvt all nvt temp 300.0 300.0 100.0
thermo           500
compute          RG all gyration
thermo_style     custom step temp press pe ke etotal density c_RG
dump             xyz all xyz 1000 DUMP.xyz
dump_modify      xyz element C H O
# Optional movie (expensive on clusters):
# dump          movie all movie 200 movie.mpg type type zoom 1 size 1280 720 box yes 0.01
run              25000               # 50 ps

unfix            nvt

# (2) NPT to get a bio-relevant density at 300 K, 1 atm
fix              npt all npt temp 300.0 300.0 100.0 iso 1.0 1.0 1000.0
thermo           1000
run              250000              # 500 ps (extend to 1–2 ns until volume/density plateau)

# (3) Production (example; tune to your science)
unfix            npt
fix              npt2 all npt temp 300.0 300.0 100.0 iso 1.0 1.0 1000.0
dump             dcd all dcd 1000 traj.dcd
run              2500000             # 5 ns

# ---------- Output ----------
# Final writeouts
write_restart    sucrose_eq.restart
write_data       sucrose_eq.data nocoeff
